NAME: rl1323_993_330_4
COMMENT: 1323-city TSP (Reinelt). FACILITY = 1, USER = 0
TYPE: TSP
DIMENSION: 1323
EDGE_WEIGHT_TYPE: EUC_2D
NODE_COORD_SECTION:
1 18192.0 8954.0 0
2 18192.0 9856.0 0
3 18192.0 11319.0 1
4 18272.0 8624.0 1
5 18416.0 7348.0 0
6 18416.0 8294.0 0
7 1200.0 7370.0 0
8 1200.0 8184.0 1
9 1200.0 10912.0 0
10 1200.0 11440.0 0
11 17904.0 572.0 0
12 17904.0 2684.0 0
13 17904.0 6908.0 1
14 17904.0 7348.0 1
15 17904.0 8624.0 0
16 8272.0 308.0 0
17 8272.0 2068.0 0
18 8272.0 2508.0 0
19 8272.0 3080.0 0
20 8272.0 3608.0 0
21 8272.0 5302.0 1
22 8336.0 7260.0 1
23 8464.0 7260.0 0
24 8496.0 9548.0 0
25 8496.0 10582.0 0
26 8496.0 11440.0 0
27 15888.0 9064.0 0
28 15888.0 9504.0 0
29 15888.0 10252.0 0
30 15888.0 11000.0 0
31 15936.0 8184.0 0
32 16048.0 8184.0 0
33 16208.0 8184.0 1
34 16336.0 572.0 0
35 16336.0 1012.0 1
36 16336.0 1452.0 1
37 16336.0 2992.0 1
38 16336.0 4818.0 1
39 16336.0 6028.0 0
40 16336.0 7348.0 1
41 1040.0 7370.0 1
42 1040.0 8184.0 1
43 1040.0 10912.0 0
44 1040.0 11440.0 0
45 4464.0 308.0 0
46 4640.0 308.0 0
47 4816.0 308.0 0
48 4944.0 308.0 0
49 5168.0 308.0 0
50 5440.0 308.0 0
51 5616.0 308.0 1
52 5728.0 308.0 1
53 5808.0 3080.0 0
54 5808.0 3608.0 0
55 5808.0 4664.0 0
56 5808.0 5368.0 0
57 5808.0 6072.0 0
58 5808.0 7128.0 0
59 5936.0 9658.0 1
60 5936.0 11286.0 0
61 16848.0 572.0 1
62 16848.0 1452.0 1
63 16848.0 2992.0 0
64 16848.0 4708.0 0
65 16848.0 6028.0 0
66 16848.0 7348.0 0
67 16848.0 8514.0 0
68 16848.0 9284.0 0
69 16848.0 9922.0 0
70 16848.0 11198.0 1
71 8240.0 7480.0 0
72 8400.0 9548.0 0
73 8400.0 10582.0 1
74 8400.0 11440.0 1
75 1520.0 9152.0 1
76 1520.0 10912.0 0
77 1520.0 11440.0 1
78 1584.0 6446.0 0
79 1584.0 7590.0 0
80 1584.0 8294.0 0
81 5168.0 11440.0 0
82 5280.0 11440.0 1
83 5456.0 11440.0 0
84 5584.0 11440.0 0
85 5712.0 11440.0 0
86 2672.0 6336.0 0
87 2784.0 6556.0 1
88 2976.0 6556.0 0
89 3104.0 6556.0 1
90 3264.0 6556.0 0
91 3360.0 6556.0 0
92 3600.0 6556.0 0
93 3856.0 6556.0 1
94 3920.0 6556.0 0
95 4016.0 6556.0 0
96 4144.0 6556.0 0
97 4208.0 6556.0 0
98 4352.0 6556.0 1
99 4464.0 6556.0 0
100 4560.0 6556.0 0
101 4688.0 6556.0 0
102 4720.0 7260.0 0
103 4720.0 8140.0 0
104 4720.0 9702.0 1
105 4720.0 10582.0 0
106 4720.0 11132.0 1
107 17008.0 572.0 1
108 17008.0 1452.0 0
109 17008.0 2992.0 0
110 17008.0 5874.0 0
111 17008.0 7348.0 0
112 17072.0 8096.0 0
113 17136.0 8096.0 0
114 17280.0 8096.0 0
115 17456.0 8096.0 1
116 17520.0 8404.0 0
117 17520.0 8954.0 1
118 17520.0 10142.0 1
119 17520.0 11319.0 0
120 880.0 7370.0 0
121 880.0 8184.0 0
122 880.0 11440.0 1
123 4144.0 4840.0 0
124 4144.0 7700.0 0
125 4304.0 8360.0 0
126 4416.0 8360.0 0
127 4576.0 8360.0 1
128 4656.0 8360.0 0
129 4864.0 8360.0 0
130 5040.0 8360.0 0
131 5296.0 8360.0 1
132 5456.0 8844.0 1
133 5456.0 9812.0 1
134 5520.0 3608.0 0
135 5520.0 4664.0 0
136 5520.0 5368.0 1
137 5520.0 5918.0 1
138 5520.0 6930.0 0
139 16560.0 8954.0 0
140 16560.0 9922.0 0
141 16592.0 572.0 0
142 16592.0 1452.0 0
143 16592.0 2992.0 0
144 16592.0 4818.0 0
145 16592.0 6138.0 0
146 16592.0 7348.0 1
147 7728.0 7744.0 0
148 7728.0 9548.0 1
149 7728.0 10846.0 0
150 7792.0 7040.0 0
151 7856.0 7040.0 1
152 7952.0 7040.0 0
153 8016.0 308.0 0
154 8016.0 2068.0 0
155 8016.0 2508.0 0
156 8016.0 3080.0 0
157 8016.0 3608.0 0
158 8016.0 4268.0 0
159 8016.0 5852.0 0
160 16272.0 9064.0 0
161 16272.0 9504.0 0
162 16272.0 9922.0 0
163 16272.0 11000.0 0
164 16640.0 8844.0 0
165 16720.0 8844.0 0
166 16784.0 6028.0 0
167 16784.0 7348.0 0
168 16784.0 8514.0 0
169 464.0 11440.0 0
170 528.0 8184.0 0
171 640.0 8184.0 0
172 784.0 7370.0 0
173 784.0 7964.0 1
174 7664.0 6446.0 1
175 7664.0 8074.0 0
176 7664.0 9548.0 0
177 7664.0 10846.0 0
178 7728.0 308.0 0
179 7728.0 2068.0 1
180 7728.0 2508.0 0
181 7728.0 3080.0 1
182 7728.0 3608.0 0
183 7728.0 4048.0 0
184 7728.0 4488.0 0
185 5232.0 3608.0 0
186 5232.0 4664.0 1
187 5232.0 5368.0 0
188 5232.0 5918.0 0
189 5232.0 6776.0 0
190 5520.0 7920.0 0
191 3856.0 7480.0 1
192 3920.0 7920.0 0
193 4016.0 7920.0 0
194 4176.0 9152.0 1
195 4176.0 9922.0 0
196 4176.0 10472.0 1
197 4176.0 10912.0 0
198 4176.0 11440.0 0
199 5984.0 748.0 0
200 6096.0 3080.0 0
201 6096.0 3608.0 0
202 6096.0 4664.0 1
203 6160.0 5368.0 0
204 6224.0 5368.0 0
205 6320.0 5368.0 0
206 6496.0 5368.0 1
207 6608.0 5698.0 0
208 6608.0 6336.0 0
209 6608.0 7502.0 0
210 6608.0 9064.0 1
211 6608.0 10142.0 0
212 6608.0 11022.0 0
213 17200.0 5874.0 0
214 17200.0 7348.0 0
215 17200.0 9284.0 0
216 17200.0 9922.0 0
217 17200.0 11198.0 0
218 17296.0 5192.0 1
219 17440.0 5192.0 1
220 17568.0 5192.0 0
221 17616.0 572.0 0
222 17616.0 2992.0 1
223 7248.0 10362.0 0
224 7248.0 11286.0 0
225 7376.0 308.0 0
226 7376.0 968.0 0
227 7376.0 2068.0 1
228 7376.0 2508.0 0
229 7376.0 3080.0 1
230 7376.0 3608.0 0
231 7376.0 4488.0 1
232 7376.0 5588.0 0
233 7376.0 6556.0 0
234 7376.0 7744.0 0
235 1808.0 6446.0 0
236 1840.0 7436.0 0
237 1840.0 8404.0 1
238 1840.0 9042.0 0
239 1840.0 10912.0 0
240 1840.0 11440.0 0
241 12272.0 9878.0 0
242 12464.0 9064.0 0
243 12592.0 9064.0 0
244 12736.0 9064.0 0
245 12848.0 902.0 0
246 12848.0 1980.0 0
247 12848.0 2640.0 0
248 12848.0 3168.0 1
249 12848.0 3608.0 0
250 12848.0 4158.0 0
251 12848.0 5368.0 0
252 12848.0 6556.0 0
253 12848.0 6996.0 1
254 12848.0 8008.0 0
255 12848.0 8844.0 0
256 1648.0 8404.0 0
257 1648.0 9152.0 1
258 1648.0 10912.0 0
259 1648.0 11440.0 1
260 1680.0 6446.0 0
261 1680.0 7590.0 0
262 6256.0 9658.0 0
263 6256.0 11022.0 0
264 16976.0 8514.0 0
265 16976.0 9284.0 1
266 16976.0 9922.0 0
267 16976.0 11198.0 0
268 17072.0 5720.0 0
269 17136.0 5720.0 1
270 17440.0 5720.0 0
271 17600.0 5720.0 0
272 11600.0 572.0 0
273 11600.0 1760.0 0
274 11600.0 3388.0 1
275 11600.0 5258.0 1
276 11600.0 6556.0 0
277 11600.0 6996.0 0
278 11600.0 7898.0 0
279 11632.0 8602.0 1
280 11632.0 9284.0 0
281 11632.0 10208.0 0
282 17376.0 10142.0 0
283 17728.0 10142.0 0
284 18416.0 10142.0 0
285 18608.0 10142.0 0
286 18704.0 10142.0 0
287 18864.0 10142.0 0
288 18992.0 10142.0 0
289 19088.0 10142.0 0
290 6224.0 968.0 0
291 6224.0 3080.0 0
292 6224.0 3608.0 0
293 6224.0 4664.0 0
294 6400.0 10912.0 1
295 6768.0 10912.0 0
296 6864.0 11286.0 0
297 1936.0 6336.0 0
298 1936.0 7436.0 0
299 1968.0 8404.0 1
300 1968.0 9152.0 0
301 1968.0 10912.0 0
302 1968.0 11440.0 0
303 3984.0 8712.0 0
304 4304.0 8932.0 0
305 4416.0 8932.0 0
306 4496.0 10802.0 0
307 15440.0 1232.0 0
308 15440.0 3608.0 0
309 15440.0 4180.0 0
310 15440.0 4818.0 0
311 15536.0 5808.0 0
312 15648.0 5808.0 0
313 15760.0 5808.0 0
314 15840.0 5808.0 0
315 15936.0 5808.0 0
316 16048.0 5808.0 0
317 16208.0 5808.0 0
318 5584.0 10252.0 0
319 5728.0 10252.0 1
320 6000.0 10252.0 0
321 6064.0 10252.0 0
322 6160.0 10252.0 0
323 6320.0 968.0 0
324 6320.0 3080.0 0
325 6320.0 3608.0 0
326 6320.0 4664.0 0
327 6384.0 9548.0 0
328 6384.0 10472.0 0
329 16720.0 11198.0 0
330 17088.0 11198.0 0
331 17376.0 11198.0 0
332 17728.0 11198.0 0
333 18416.0 11198.0 1
334 18608.0 11198.0 0
335 18704.0 11198.0 1
336 18848.0 11198.0 0
337 15280.0 572.0 0
338 15280.0 1232.0 1
339 15280.0 3608.0 1
340 15280.0 4180.0 0
341 15280.0 4818.0 0
342 15280.0 6138.0 0
343 15280.0 7348.0 1
344 15280.0 8228.0 0
345 15280.0 9064.0 1
346 15280.0 9504.0 0
347 15280.0 10252.0 0
348 15280.0 11000.0 0
349 3472.0 7920.0 1
350 3472.0 8712.0 1
351 3472.0 9372.0 0
352 3472.0 10472.0 1
353 3472.0 10912.0 1
354 3472.0 11440.0 0
355 208.0 11440.0 0
356 432.0 7964.0 1
357 944.0 7964.0 1
358 1104.0 7370.0 0
359 1424.0 6446.0 0
360 1424.0 7370.0 0
361 1424.0 8294.0 0
362 10096.0 4378.0 0
363 10096.0 5478.0 0
364 10096.0 6556.0 0
365 10096.0 7480.0 0
366 10096.0 8008.0 1
367 10096.0 8602.0 0
368 10096.0 9284.0 0
369 10096.0 10318.0 0
370 10096.0 11440.0 0
371 10256.0 3608.0 0
372 10336.0 3608.0 0
373 10448.0 3608.0 0
374 10544.0 3608.0 0
375 10608.0 3608.0 0
376 10672.0 3608.0 0
377 10752.0 3608.0 0
378 10864.0 3608.0 1
379 10992.0 3608.0 1
380 11088.0 3608.0 0
381 11168.0 3608.0 0
382 11280.0 3608.0 0
383 11408.0 3608.0 0
384 688.0 7370.0 1
385 688.0 11440.0 0
386 6160.0 968.0 1
387 6496.0 968.0 0
388 6592.0 968.0 0
389 6736.0 968.0 0
390 6848.0 968.0 0
391 6944.0 968.0 0
392 7104.0 968.0 0
393 7232.0 968.0 0
394 7552.0 968.0 0
395 7600.0 308.0 0
396 7600.0 2068.0 0
397 7600.0 2508.0 1
398 7600.0 3080.0 1
399 7600.0 3608.0 0
400 7600.0 4048.0 0
401 7600.0 4488.0 0
402 7632.0 5148.0 1
403 7792.0 5148.0 1
404 7856.0 5148.0 0
405 7920.0 5148.0 1
406 8112.0 5148.0 0
407 8384.0 5148.0 0
408 8464.0 5148.0 0
409 8624.0 5148.0 0
410 8800.0 5148.0 0
411 8912.0 5148.0 0
412 9216.0 5148.0 0
413 9504.0 5148.0 1
414 9616.0 5148.0 0
415 9744.0 5148.0 0
416 9888.0 5148.0 0
417 9936.0 6556.0 0
418 9936.0 7480.0 0
419 9936.0 8382.0 0
420 9936.0 9284.0 0
421 9936.0 11440.0 0
422 10032.0 572.0 0
423 10032.0 1452.0 1
424 10032.0 2728.0 0
425 6496.0 7084.0 0
426 6736.0 7084.0 1
427 6768.0 9064.0 0
428 6768.0 10142.0 0
429 9936.0 572.0 0
430 9936.0 1452.0 0
431 5200.0 10032.0 0
432 7408.0 10362.0 0
433 7568.0 10692.0 0
434 7856.0 10692.0 1
435 7936.0 10692.0 0
436 8032.0 10692.0 0
437 8144.0 10692.0 0
438 8224.0 10692.0 0
439 8320.0 10692.0 0
440 8784.0 10692.0 0
441 8976.0 10692.0 0
442 9408.0 10692.0 0
443 10288.0 10692.0 0
444 10400.0 10692.0 1
445 10560.0 10692.0 1
446 10704.0 10692.0 0
447 10864.0 10692.0 0
448 10960.0 10692.0 0
449 11136.0 10692.0 0
450 11264.0 10692.0 0
451 11392.0 10692.0 0
452 11472.0 10692.0 0
453 11568.0 10692.0 0
454 4880.0 9218.0 0
455 4880.0 10032.0 0
456 4880.0 10582.0 0
457 4880.0 11132.0 0
458 4944.0 3608.0 0
459 4944.0 4664.0 0
460 4944.0 5368.0 0
461 4944.0 5918.0 0
462 4944.0 6776.0 1
463 4944.0 7436.0 0
464 6944.0 308.0 0
465 7104.0 308.0 0
466 7232.0 308.0 0
467 7792.0 308.0 1
468 7856.0 308.0 0
469 7920.0 308.0 1
470 8128.0 308.0 0
471 8384.0 308.0 0
472 8464.0 308.0 0
473 8528.0 308.0 0
474 8592.0 308.0 0
475 8688.0 308.0 0
476 8800.0 308.0 0
477 8912.0 308.0 1
478 9008.0 308.0 0
479 9104.0 308.0 0
480 9200.0 308.0 0
481 9232.0 1452.0 0
482 9232.0 2288.0 1
483 9232.0 3388.0 0
484 9344.0 7260.0 1
485 9456.0 8602.0 0
486 9456.0 11440.0 0
487 3568.0 7920.0 0
488 3664.0 7920.0 0
489 3728.0 7920.0 0
490 8240.0 9548.0 0
491 8240.0 11440.0 0
492 9376.0 6776.0 0
493 9776.0 572.0 0
494 9776.0 1452.0 0
495 9776.0 2508.0 0
496 9776.0 3388.0 0
497 6992.0 7854.0 1
498 6992.0 9174.0 0
499 6992.0 9812.0 0
500 6992.0 10362.0 0
501 7056.0 2068.0 1
502 7056.0 3080.0 0
503 7056.0 3608.0 1
504 7056.0 4664.0 0
505 7056.0 5588.0 0
506 7056.0 6556.0 0
507 14512.0 682.0 0
508 14640.0 3608.0 0
509 14640.0 4048.0 0
510 14640.0 4598.0 0
511 14640.0 6138.0 0
512 14640.0 7568.0 0
513 14640.0 8228.0 0
514 14640.0 9064.0 0
515 14640.0 9504.0 1
516 14640.0 10252.0 0
517 14640.0 11000.0 0
518 14768.0 1012.0 1
519 14848.0 1012.0 1
520 14960.0 1012.0 1
521 15376.0 1012.0 1
522 15536.0 1012.0 0
523 15664.0 1012.0 0
524 15760.0 1012.0 0
525 15840.0 1012.0 0
526 15936.0 1012.0 1
527 16048.0 1012.0 0
528 16208.0 1012.0 0
529 16464.0 1012.0 0
530 16528.0 572.0 0
531 14736.0 6138.0 0
532 14736.0 7568.0 1
533 14736.0 8228.0 0
534 14736.0 9064.0 1
535 14736.0 9504.0 0
536 14736.0 10252.0 1
537 14736.0 10890.0 0
538 14768.0 4928.0 0
539 14880.0 4928.0 1
540 14976.0 4928.0 1
541 15376.0 4928.0 0
542 15536.0 4928.0 1
543 15648.0 4928.0 0
544 15760.0 4928.0 0
545 15840.0 4928.0 0
546 15936.0 4928.0 1
547 16048.0 4928.0 1
548 16208.0 4928.0 0
549 16464.0 4928.0 0
550 16704.0 4928.0 0
551 13808.0 6028.0 0
552 13808.0 6776.0 0
553 13808.0 7788.0 1
554 13808.0 8228.0 0
555 13808.0 9504.0 0
556 13808.0 10362.0 1
557 13808.0 11110.0 0
558 14032.0 4708.0 1
559 14144.0 4708.0 0
560 14320.0 4708.0 0
561 14464.0 4708.0 0
562 16944.0 4708.0 0
563 3664.0 8712.0 1
564 3728.0 9284.0 0
565 3760.0 9702.0 0
566 3760.0 10472.0 0
567 3760.0 10912.0 0
568 3760.0 11440.0 1
569 3600.0 8712.0 1
570 3600.0 9482.0 1
571 4048.0 9812.0 1
572 4336.0 9812.0 0
573 4576.0 9812.0 1
574 4656.0 9812.0 0
575 4976.0 8844.0 1
576 8976.0 8118.0 0
577 8976.0 9394.0 1
578 8976.0 11440.0 1
579 10176.0 6556.0 0
580 10304.0 6556.0 0
581 10448.0 6556.0 0
582 10576.0 6556.0 0
583 10736.0 6556.0 1
584 10832.0 6556.0 1
585 10896.0 6556.0 1
586 10976.0 6556.0 0
587 11088.0 6556.0 0
588 11168.0 6556.0 0
589 11264.0 6556.0 0
590 11424.0 6556.0 0
591 11536.0 6556.0 0
592 11664.0 6556.0 0
593 11728.0 6556.0 1
594 11792.0 6556.0 0
595 11872.0 6556.0 1
596 11968.0 6556.0 1
597 12112.0 6556.0 1
598 12272.0 6556.0 1
599 12448.0 6556.0 1
600 12608.0 6556.0 0
601 12736.0 6556.0 0
602 13008.0 6556.0 0
603 13072.0 1012.0 1
604 13072.0 1980.0 1
605 13072.0 2640.0 0
606 13072.0 3608.0 0
607 13072.0 4268.0 0
608 13072.0 5368.0 0
609 13168.0 572.0 0
610 13264.0 572.0 0
611 13408.0 572.0 0
612 13568.0 572.0 0
613 13696.0 572.0 0
614 14016.0 572.0 0
615 14160.0 572.0 0
616 14320.0 572.0 1
617 15120.0 572.0 1
618 15376.0 572.0 0
619 10480.0 572.0 0
620 10480.0 1452.0 0
621 10480.0 6006.0 0
622 7120.0 2508.0 0
623 7120.0 3080.0 0
624 7120.0 3608.0 0
625 7120.0 4664.0 0
626 7120.0 5588.0 1
627 7120.0 6556.0 1
628 7120.0 7744.0 0
629 7120.0 9064.0 0
630 7120.0 9812.0 1
631 7120.0 10362.0 0
632 7120.0 11286.0 1
633 3728.0 8712.0 0
634 4016.0 10472.0 0
635 4016.0 10912.0 0
636 4016.0 11440.0 1
637 6480.0 9064.0 1
638 6896.0 9064.0 0
639 7248.0 2068.0 1
640 7248.0 2508.0 0
641 7248.0 3080.0 1
642 7248.0 3608.0 0
643 7248.0 4664.0 0
644 7248.0 5588.0 0
645 7248.0 6556.0 1
646 7248.0 7480.0 0
647 3920.0 8712.0 0
648 5056.0 9372.0 0
649 3536.0 9372.0 0
650 3536.0 10472.0 0
651 3536.0 10912.0 0
652 3536.0 11440.0 0
653 8784.0 8448.0 0
654 10304.0 8448.0 1
655 10560.0 8448.0 0
656 10704.0 8448.0 1
657 10768.0 8448.0 0
658 10848.0 8448.0 0
659 10976.0 8448.0 0
660 11120.0 8448.0 0
661 11264.0 8448.0 0
662 11552.0 8448.0 0
663 11760.0 8448.0 0
664 11888.0 8448.0 0
665 12080.0 8448.0 0
666 12240.0 8448.0 0
667 12720.0 572.0 0
668 12720.0 1980.0 1
669 12720.0 3718.0 0
670 12720.0 5368.0 0
671 12720.0 6996.0 1
672 2800.0 7326.0 0
673 2928.0 7700.0 0
674 2992.0 7700.0 0
675 3104.0 7700.0 1
676 3264.0 7700.0 1
677 4208.0 7700.0 0
678 8112.0 2068.0 0
679 8112.0 2508.0 0
680 8112.0 3080.0 0
681 8112.0 3608.0 1
682 8112.0 4268.0 1
683 8112.0 7480.0 1
684 9584.0 2728.0 0
685 9584.0 3388.0 0
686 9840.0 2288.0 1
687 11440.0 2288.0 1
688 11728.0 2288.0 0
689 11824.0 2288.0 0
690 11984.0 2288.0 1
691 12112.0 2288.0 0
692 12256.0 2288.0 0
693 12384.0 2288.0 0
694 12464.0 2288.0 1
695 12496.0 572.0 0
696 12496.0 1232.0 0
697 12608.0 1012.0 0
698 5584.0 7920.0 0
699 5680.0 7920.0 0
700 5760.0 7920.0 1
701 6896.0 7920.0 1
702 7568.0 7920.0 1
703 8144.0 7920.0 0
704 8208.0 7920.0 0
705 9136.0 7590.0 0
706 10544.0 6116.0 1
707 11088.0 6116.0 0
708 11168.0 6116.0 1
709 11264.0 6116.0 0
710 11312.0 572.0 0
711 11312.0 1496.0 0
712 11312.0 5258.0 0
713 10768.0 572.0 1
714 10768.0 1342.0 0
715 10768.0 4488.0 0
716 10768.0 5038.0 1
717 10768.0 5588.0 0
718 10768.0 6996.0 0
719 10768.0 9284.0 1
720 10768.0 9878.0 0
721 5584.0 8844.0 1
722 5616.0 3080.0 0
723 6160.0 3080.0 0
724 6496.0 3080.0 1
725 6608.0 3080.0 0
726 6736.0 3080.0 0
727 6848.0 3080.0 0
728 6944.0 3080.0 1
729 7792.0 3080.0 0
730 7856.0 3080.0 0
731 7920.0 3080.0 0
732 8384.0 3080.0 1
733 8464.0 3080.0 1
734 8560.0 3080.0 0
735 8688.0 3080.0 0
736 8800.0 3080.0 0
737 8912.0 3080.0 0
738 9008.0 3080.0 1
739 8688.0 2288.0 0
740 8464.0 6116.0 0
741 8528.0 2068.0 0
742 8528.0 2508.0 0
743 8528.0 3608.0 1
744 8464.0 2068.0 0
745 8464.0 2508.0 0
746 8464.0 3608.0 0
747 17456.0 572.0 1
748 17456.0 2992.0 0
749 17456.0 7238.0 1
750 11728.0 2948.0 1
751 11824.0 2948.0 0
752 11984.0 2948.0 0
753 12112.0 2948.0 0
754 12256.0 2948.0 0
755 12384.0 2948.0 1
756 12464.0 2948.0 0
757 12560.0 572.0 0
758 12560.0 1980.0 0
759 12560.0 2728.0 0
760 17552.0 7238.0 0
761 17632.0 8184.0 0
762 17776.0 8184.0 0
763 18080.0 8184.0 1
764 18256.0 9064.0 0
765 10448.0 10032.0 1
766 10560.0 10032.0 1
767 10704.0 10032.0 1
768 10864.0 10032.0 0
769 10976.0 10032.0 0
770 11136.0 10032.0 0
771 11760.0 10032.0 0
772 11888.0 10032.0 0
773 12032.0 10032.0 0
774 12144.0 10032.0 1
775 12880.0 10032.0 1
776 13008.0 10032.0 0
777 13168.0 10032.0 0
778 13312.0 10032.0 1
779 13472.0 10032.0 1
780 13584.0 10032.0 0
781 13680.0 3608.0 1
782 13680.0 4268.0 0
783 13680.0 6028.0 0
784 13680.0 6776.0 0
785 13680.0 8008.0 0
786 13680.0 9504.0 1
787 17760.0 6908.0 0
788 18048.0 6908.0 1
789 18128.0 7348.0 0
790 12640.0 3388.0 1
791 12784.0 2640.0 1
792 12784.0 3168.0 0
793 10976.0 8008.0 0
794 11088.0 8008.0 0
795 11264.0 8008.0 0
796 11664.0 8008.0 0
797 11728.0 8008.0 0
798 11792.0 8008.0 0
799 11888.0 8008.0 0
800 12912.0 8008.0 0
801 13008.0 8008.0 0
802 13184.0 8008.0 0
803 13328.0 8008.0 1
804 13456.0 8008.0 0
805 13568.0 8008.0 1
806 8400.0 2068.0 0
807 8400.0 2508.0 0
808 8400.0 3608.0 1
809 9328.0 1452.0 1
810 9520.0 1452.0 0
811 9632.0 1452.0 0
812 9840.0 1452.0 0
813 10160.0 1452.0 0
814 10256.0 1452.0 0
815 10336.0 1452.0 0
816 10544.0 1452.0 0
817 10608.0 1452.0 1
818 10672.0 1452.0 0
819 10864.0 1452.0 0
820 10992.0 1452.0 1
821 11088.0 1452.0 1
822 11168.0 1452.0 0
823 12304.0 572.0 0
824 14864.0 3608.0 0
825 14864.0 4048.0 0
826 14864.0 6138.0 0
827 14864.0 7568.0 0
828 14864.0 8228.0 0
829 14864.0 9064.0 1
830 14864.0 9504.0 0
831 14864.0 10252.0 0
832 14864.0 10890.0 1
833 7792.0 2068.0 1
834 7792.0 2508.0 0
835 7792.0 3608.0 0
836 7792.0 4048.0 1
837 7792.0 4488.0 0
838 7792.0 6446.0 0
839 15376.0 3608.0 0
840 15376.0 4180.0 0
841 15376.0 6138.0 0
842 15376.0 7348.0 0
843 6864.0 2068.0 0
844 6864.0 3608.0 0
845 6864.0 4774.0 0
846 6928.0 5368.0 0
847 10544.0 5368.0 0
848 10672.0 5368.0 0
849 10704.0 9284.0 1
850 12464.0 11000.0 0
851 12592.0 11000.0 0
852 12736.0 11000.0 0
853 12880.0 11000.0 0
854 13008.0 11000.0 0
855 13168.0 11000.0 1
856 13312.0 11000.0 0
857 13456.0 11000.0 0
858 13584.0 11000.0 0
859 14144.0 11000.0 0
860 14224.0 11000.0 0
861 14336.0 11000.0 0
862 14416.0 11000.0 0
863 14992.0 11000.0 0
864 15440.0 11000.0 1
865 15632.0 11000.0 0
866 15760.0 11000.0 0
867 15824.0 11000.0 0
868 16160.0 11000.0 0
869 16464.0 11000.0 0
870 15952.0 572.0 0
871 15952.0 1452.0 1
872 16048.0 2992.0 1
873 16208.0 2992.0 0
874 16464.0 2992.0 1
875 16704.0 2992.0 1
876 17072.0 2992.0 1
877 17136.0 2992.0 0
878 17296.0 2992.0 1
879 15664.0 572.0 0
880 15664.0 3608.0 0
881 15664.0 4180.0 1
882 15664.0 7348.0 0
883 15664.0 7788.0 0
884 15664.0 9064.0 0
885 15664.0 9504.0 0
886 15664.0 10252.0 0
887 16432.0 1452.0 1
888 8144.0 9548.0 1
889 8144.0 11440.0 0
890 9616.0 572.0 0
891 12112.0 572.0 0
892 12112.0 3938.0 0
893 12112.0 5258.0 0
894 8304.0 9548.0 0
895 8304.0 11440.0 1
896 12912.0 8844.0 0
897 13008.0 8844.0 1
898 13184.0 8844.0 0
899 13328.0 8844.0 0
900 13456.0 8844.0 0
901 13552.0 3608.0 0
902 13552.0 4378.0 0
903 13552.0 5368.0 1
904 13552.0 6028.0 0
905 13552.0 6776.0 0
906 11920.0 6996.0 1
907 11920.0 9284.0 0
908 11952.0 572.0 1
909 11952.0 3938.0 0
910 11952.0 5258.0 0
911 10320.0 572.0 0
912 10448.0 11440.0 0
913 11824.0 572.0 0
914 11824.0 3938.0 0
915 11824.0 5258.0 0
916 12656.0 5368.0 0
917 5008.0 10692.0 0
918 5008.0 11132.0 0
919 13168.0 1980.0 1
920 13168.0 2640.0 1
921 13168.0 3608.0 0
922 13168.0 4378.0 0
923 13168.0 5478.0 0
924 13232.0 6028.0 0
925 13376.0 6028.0 0
926 13488.0 6028.0 0
927 14032.0 6028.0 0
928 14144.0 6028.0 0
929 14224.0 6028.0 0
930 14320.0 6028.0 0
931 14464.0 6028.0 0
932 14976.0 6028.0 1
933 16704.0 6028.0 1
934 3280.0 10912.0 0
935 3280.0 11440.0 0
936 6736.0 308.0 0
937 6736.0 2068.0 0
938 6736.0 3608.0 0
939 6736.0 4774.0 0
940 6736.0 5698.0 1
941 6736.0 6336.0 0
942 8784.0 11440.0 0
943 10288.0 11440.0 0
944 10512.0 11440.0 0
945 11792.0 6996.0 0
946 8720.0 4158.0 0
947 6800.0 5808.0 0
948 6800.0 6336.0 1
949 6912.0 6556.0 0
950 7856.0 6556.0 0
951 8896.0 6556.0 0
952 8944.0 2288.0 0
953 8944.0 3608.0 0
954 7568.0 9504.0 1
955 7856.0 9504.0 1
956 8784.0 9504.0 0
957 14144.0 8228.0 0
958 14224.0 8228.0 0
959 14336.0 8228.0 0
960 14416.0 8228.0 0
961 14480.0 8228.0 0
962 15440.0 8228.0 1
963 15504.0 8228.0 0
964 15536.0 3608.0 0
965 15536.0 4180.0 0
966 15536.0 7348.0 1
967 15568.0 572.0 0
968 15760.0 572.0 0
969 15840.0 572.0 0
970 16048.0 572.0 0
971 16208.0 572.0 0
972 16704.0 572.0 1
973 17104.0 572.0 1
974 17296.0 572.0 1
975 18000.0 572.0 1
976 18080.0 572.0 1
977 11728.0 572.0 1
978 11728.0 3938.0 0
979 11728.0 5258.0 0
980 11728.0 6996.0 1
981 11760.0 9284.0 0
982 12272.0 3938.0 0
983 12272.0 5258.0 0
984 10512.0 9284.0 0
985 7856.0 4048.0 0
986 7920.0 4048.0 0
987 8784.0 2288.0 1
988 8784.0 3608.0 0
989 8784.0 4268.0 0
990 7920.0 2068.0 0
991 7920.0 2508.0 1
992 7920.0 3608.0 0
993 7920.0 4488.0 0
994 8880.0 4268.0 0
995 10544.0 572.0 0
996 10544.0 6996.0 0
997 10608.0 4488.0 0
998 9008.0 2288.0 0
999 9312.0 2288.0 0
1000 11440.0 572.0 1
1001 11440.0 5258.0 1
1002 11440.0 6996.0 0
1003 11536.0 6996.0 0
1004 15824.0 7348.0 0
1005 15824.0 7788.0 0
1006 15824.0 9064.0 0
1007 15824.0 9504.0 0
1008 15824.0 10252.0 0
1009 6608.0 2068.0 0
1010 6608.0 3608.0 1
1011 6608.0 4664.0 1
1012 6896.0 5808.0 0
1013 112.0 11198.0 0
1014 10672.0 4488.0 0
1015 10832.0 4488.0 0
1016 10864.0 572.0 0
1017 10864.0 5038.0 0
1018 11088.0 6996.0 0
1019 9520.0 572.0 0
1020 9520.0 2068.0 0
1021 12240.0 6996.0 0
1022 3280.0 8712.0 0
1023 3280.0 9152.0 0
1024 3632.0 10472.0 0
1025 3632.0 10912.0 0
1026 3632.0 11440.0 0
1027 11568.0 9284.0 0
1028 14128.0 10472.0 1
1029 14160.0 1342.0 0
1030 14160.0 3608.0 1
1031 14160.0 4048.0 0
1032 14160.0 6776.0 0
1033 14160.0 7678.0 0
1034 14160.0 9504.0 0
1035 4080.0 10472.0 0
1036 4336.0 10472.0 1
1037 4576.0 10472.0 0
1038 4976.0 10032.0 1
1039 528.0 7370.0 0
1040 16016.0 1452.0 0
1041 16016.0 7348.0 1
1042 16016.0 9064.0 0
1043 16016.0 9504.0 1
1044 16160.0 9922.0 0
1045 16464.0 9922.0 0
1046 16640.0 9922.0 0
1047 16720.0 9922.0 0
1048 17088.0 9922.0 1
1049 1744.0 10912.0 0
1050 2112.0 10912.0 0
1051 2368.0 10912.0 0
1052 2544.0 10912.0 0
1053 2944.0 10912.0 1
1054 3056.0 8712.0 1
1055 3056.0 9152.0 0
1056 3088.0 10912.0 1
1057 4080.0 10912.0 0
1058 4336.0 10912.0 0
1059 4432.0 10912.0 0
1060 13456.0 9504.0 1
1061 14224.0 7788.0 0
1062 14336.0 7788.0 0
1063 14416.0 7788.0 0
1064 14448.0 1342.0 0
1065 14448.0 3608.0 0
1066 14448.0 4048.0 0
1067 1280.0 8404.0 0
1068 1744.0 8404.0 1
1069 1904.0 8404.0 0
1070 2160.0 8404.0 0
1071 2224.0 8404.0 0
1072 2368.0 8404.0 1
1073 2544.0 8404.0 0
1074 2704.0 7546.0 0
1075 14032.0 1342.0 0
1076 14032.0 3608.0 0
1077 14032.0 6776.0 0
1078 14976.0 7568.0 0
1079 14320.0 4048.0 0
1080 14768.0 4048.0 0
1081 13392.0 1980.0 0
1082 13392.0 3608.0 1
1083 13392.0 4378.0 1
1084 13392.0 5368.0 0
1085 16688.0 1452.0 0
1086 13360.0 6776.0 0
1087 16208.0 1452.0 0
1088 16208.0 7348.0 0
1089 1504.0 6336.0 1
1090 2064.0 6336.0 0
1091 2160.0 6336.0 0
1092 2224.0 6336.0 0
1093 2384.0 6336.0 0
1094 2544.0 6336.0 0
1095 4560.0 7370.0 0
1096 4304.0 7260.0 0
1097 4384.0 7260.0 0
1098 4464.0 7260.0 0
1099 4816.0 7260.0 0
1100 4880.0 7260.0 0
1101 14352.0 1342.0 0
1102 14352.0 3608.0 0
1103 14352.0 9504.0 0
1104 14352.0 10252.0 1
1105 5744.0 8844.0 0
1106 4336.0 11440.0 0
1107 6160.0 3608.0 1
1108 6160.0 4664.0 0
1109 6160.0 11132.0 0
1110 6512.0 3608.0 1
1111 6512.0 4664.0 0
1112 6928.0 2068.0 1
1113 6928.0 3608.0 0
1114 6928.0 4664.0 1
1115 11280.0 6996.0 1
1116 12592.0 6996.0 0
1117 13488.0 3608.0 0
1118 14768.0 3608.0 1
1119 14960.0 3608.0 0
1120 15760.0 3608.0 0
1121 15840.0 3608.0 0
1122 15920.0 7348.0 0
1123 12368.0 572.0 0
1124 12368.0 1232.0 1
1125 12368.0 3938.0 0
1126 12368.0 5258.0 0
1127 11664.0 6996.0 1
1128 17776.0 2684.0 0
1129 12464.0 3938.0 1
1130 13488.0 4268.0 0
1131 13232.0 6666.0 1
1132 10192.0 572.0 0
1133 944.0 7370.0 0
1134 10848.0 9284.0 0
1135 17088.0 9284.0 0
1136 17344.0 9284.0 0
1137 4592.0 4840.0 0
1138 4592.0 6028.0 0
1139 11024.0 572.0 0
1140 11024.0 5038.0 1
1141 2384.0 7436.0 0
1142 2384.0 9152.0 0
1143 2384.0 11440.0 0
1144 2928.0 8712.0 0
1145 2928.0 9152.0 0
1146 2928.0 11440.0 0
1147 2544.0 7546.0 0
1148 2544.0 9152.0 1
1149 2544.0 11440.0 0
1150 9648.0 7480.0 0
1151 2048.0 7172.0 0
1152 2160.0 7172.0 1
1153 2224.0 7172.0 0
1154 3440.0 7172.0 0
1155 1744.0 9042.0 0
1156 1744.0 11440.0 0
1157 2096.0 9152.0 0
1158 2096.0 11440.0 0
1159 3056.0 11440.0 1
1160 10960.0 6996.0 0
1161 2992.0 8712.0 0
1162 2992.0 9152.0 1
1163 10896.0 6996.0 0
1164 4080.0 11440.0 0
1165 16144.0 9064.0 0
1166 16144.0 9504.0 1
1167 14224.0 6776.0 0
1168 14224.0 9504.0 0
1169 14224.0 10252.0 0
1170 17104.0 8624.0 0
1171 17136.0 7348.0 0
1172 15440.0 9064.0 0
1173 15440.0 9504.0 0
1174 15440.0 10252.0 1
1175 15760.0 7788.0 0
1176 15856.0 1452.0 0
1177 4208.0 4840.0 1
1178 18320.0 7348.0 1
1179 15760.0 4180.0 1
1180 9712.0 7480.0 0
1181 17072.0 1452.0 0
1182 17072.0 7348.0 0
1183 16464.0 9504.0 0
1184 7856.0 2068.0 0
1185 7856.0 2508.0 0
1186 7856.0 3608.0 0
1187 7856.0 4488.0 0
1188 16720.0 7348.0 0
1189 15504.0 9064.0 0
1190 4368.0 4840.0 0
1191 6000.0 11132.0 0
1192 6064.0 11132.0 0
1193 4688.0 5808.0 0
1194 4816.0 5808.0 0
1195 4880.0 5808.0 0
1196 9008.0 3608.0 1
1197 15760.0 9064.0 1
1198 17424.0 9064.0 0
1199 18512.0 8294.0 0
1200 4880.0 4664.0 0
1201 4880.0 5368.0 0
1202 4880.0 6776.0 0
1203 4688.0 4488.0 0
1204 4752.0 4488.0 1
1205 4816.0 4488.0 0
1206 18608.0 8866.0 0
1207 14416.0 9504.0 0
1208 14416.0 10252.0 0
1209 15760.0 7348.0 1
1210 18224.0 7348.0 1
1211 13424.0 6776.0 0
1212 18704.0 8866.0 0
1213 11088.0 4928.0 1
1214 11168.0 4928.0 0
1215 12464.0 5368.0 0
1216 15760.0 1452.0 0
1217 15760.0 9504.0 0
1218 15760.0 10252.0 1
1219 432.0 7480.0 0
1220 11168.0 6996.0 0
1221 13488.0 6776.0 0
1222 13584.0 9504.0 1
1223 13488.0 5368.0 0
1224 11184.0 572.0 0
1225 4464.0 4840.0 1
1226 4528.0 4840.0 0
1227 4816.0 5368.0 1
1228 4816.0 6776.0 1
1229 11088.0 572.0 1
1230 10672.0 572.0 0
1231 10256.0 572.0 0
1232 9840.0 572.0 0
1233 4432.0 220.0 1
1234 5808.0 220.0 0
1235 1552.0 8932.0 0
1236 5136.0 11528.0 1
1237 5552.0 11528.0 0
1238 5968.0 11528.0 1
1239 5488.0 7304.0 1
1240 16576.0 8184.0 0
1241 6096.0 264.0 1
1242 6096.0 594.0 0
1243 1824.0 6864.0 1
1244 1664.0 8184.0 0
1245 5936.0 330.0 0
1246 11616.0 8228.0 0
1247 1952.0 8184.0 1
1248 6304.0 8536.0 1
1249 6368.0 8844.0 0
1250 16688.0 11407.0 0
1251 3488.0 7480.0 0
1252 1392.0 2904.0 0
1253 1392.0 5852.0 1
1254 1408.0 6028.0 0
1255 11728.0 11330.0 0
1256 11728.0 10868.0 1
1257 6896.0 220.0 0
1258 9232.0 220.0 0
1259 8272.0 8756.0 0
1260 7024.0 7260.0 0
1261 14720.0 4928.0 0
1262 13072.0 484.0 0
1263 15408.0 484.0 1
1264 8080.0 7700.0 0
1265 10016.0 9064.0 0
1266 7776.0 8448.0 1
1267 15344.0 7788.0 0
1268 12400.0 11484.0 0
1269 12400.0 11176.0 0
1270 16496.0 11484.0 1
1271 16496.0 11176.0 0
1272 11936.0 6776.0 0
1273 11840.0 6336.0 1
1274 12672.0 6776.0 0
1275 3312.0 10692.0 1
1276 10544.0 11528.0 1
1277 11808.0 8228.0 0
1278 15536.0 484.0 0
1279 18128.0 352.0 0
1280 7600.0 6116.0 1
1281 11744.0 8228.0 0
1282 7888.0 9064.0 0
1283 10992.0 11550.0 0
1284 10992.0 11308.0 0
1285 12000.0 6776.0 0
1286 4992.0 9812.0 0
1287 5888.0 5060.0 0
1288 2704.0 8250.0 0
1289 16672.0 6248.0 0
1290 3408.0 3058.0 0
1291 3408.0 6160.0 1
1292 5760.0 8624.0 0
1293 6528.0 8844.0 0
1294 6944.0 7260.0 0
1295 7408.0 10912.0 0
1296 12608.0 3608.0 1
1297 12352.0 6116.0 0
1298 11648.0 6336.0 0
1299 12416.0 6116.0 0
1300 12096.0 9504.0 0
1301 13248.0 9284.0 0
1302 912.0 3410.0 0
1303 912.0 6864.0 0
1304 928.0 7040.0 0
1305 14800.0 8008.0 0
1306 6640.0 220.0 0
1307 6832.0 220.0 1
1308 2944.0 6952.0 0
1309 9664.0 7788.0 0
1310 560.0 3410.0 1
1311 560.0 6864.0 1
1312 576.0 7040.0 0
1313 1728.0 8184.0 0
1314 5120.0 7920.0 0
1315 2080.0 8932.0 1
1316 3072.0 11220.0 0
1317 2976.0 10692.0 0
1318 10848.0 6776.0 0
1319 8848.0 9064.0 0
1320 16112.0 8844.0 1
1321 17120.0 8404.0 0
1322 12160.0 9064.0 0
1323 13552.0 11418.0 0
EOF